NAME e2esliceiso
OBJSENSE MAX
ROWS
 N  OBJ
 G  mips_limit_1_0_0_0
 L  mips_limit_2_0_0_0
 G  mips_limit_1_0_0_1
 L  mips_limit_2_0_0_1
 G  mips_limit_1_0_0_2
 L  mips_limit_2_0_0_2
 L  mips_max_limit_1_0
 L  mips_max_limit_1_1
 L  mips_max_limit_1_2
 L  mips_max_limit_2_0
 L  mips_max_limit_2_1
 L  mips_max_limit_2_2
 L  radio_max_limit_0_0
 L  radio_max_limit_1_0
 G  link_path_mapping_coordination_1_0_0_0_0
 G  link_path_mapping_coordination_1_0_0_1_0
 G  link_path_mapping_coordination_1_0_0_2_0
 G  link_path_mapping_coordination_1_0_0_3_0
 G  link_path_mapping_coordination_1_0_0_4_0
 G  link_path_mapping_coordination_1_0_0_5_0
 G  link_path_mapping_coordination_1_0_0_6_0
 G  link_path_mapping_coordination_1_0_0_7_0
 L  link_path_mapping_coordination_2_0_0_0_0
 L  link_path_mapping_coordination_2_0_0_1_0
 L  link_path_mapping_coordination_2_0_0_2_0
 L  link_path_mapping_coordination_2_0_0_3_0
 L  link_path_mapping_coordination_2_0_0_4_0
 L  link_path_mapping_coordination_2_0_0_5_0
 L  link_path_mapping_coordination_2_0_0_6_0
 L  link_path_mapping_coordination_2_0_0_7_0
 L  node_path_mapping_coordination_1_0_0_0
 L  node_path_mapping_coordination_1_0_0_1
 L  node_path_mapping_coordination_1_0_0_2
 L  node_path_mapping_coordination_2_0_0_0
 L  node_path_mapping_coordination_2_0_0_1
 G  bandwidth_overprovisioning_3_0_0
 L  bandwidth_max_limit_0_0
 L  bandwidth_max_limit_1_0
 L  bandwidth_max_limit_2_0
 L  bandwidth_max_limit_3_0
 L  bandwidth_max_limit_4_0
 L  bandwidth_max_limit_5_0
 L  bandwidth_max_limit_6_0
 L  bandwidth_max_limit_7_0
 G  minimum_profit
COLUMNS
    c_0_0_0   OBJ       9999
    c_0_0_0   mips_limit_1_0_0_0  1
    c_0_0_0   mips_limit_2_0_0_0  1
    c_0_0_0   mips_max_limit_1_0  1
    c_0_0_0   minimum_profit  9999
    c_0_0_1   OBJ       9999
    c_0_0_1   mips_limit_1_0_0_1  1
    c_0_0_1   mips_limit_2_0_0_1  1
    c_0_0_1   mips_max_limit_1_1  1
    c_0_0_1   minimum_profit  9999
    c_0_0_2   OBJ       9999
    c_0_0_2   mips_limit_1_0_0_2  1
    c_0_0_2   mips_limit_2_0_0_2  1
    c_0_0_2   mips_max_limit_1_2  1
    c_0_0_2   minimum_profit  9999
    b_0_0_0_0_0  OBJ       0.9999
    b_0_0_0_0_0  link_path_mapping_coordination_1_0_0_0_0  1
    b_0_0_0_0_0  link_path_mapping_coordination_2_0_0_0_0  1
    b_0_0_0_0_0  node_path_mapping_coordination_1_0_0_0  1
    b_0_0_0_0_0  node_path_mapping_coordination_2_0_0_0  1
    b_0_0_0_0_0  bandwidth_overprovisioning_3_0_0  -1
    b_0_0_0_0_0  bandwidth_max_limit_0_0  1
    b_0_0_0_0_0  minimum_profit  0.9999
    b_0_0_1_0_0  OBJ       0.9999
    b_0_0_1_0_0  link_path_mapping_coordination_1_0_0_1_0  1
    b_0_0_1_0_0  link_path_mapping_coordination_2_0_0_1_0  1
    b_0_0_1_0_0  node_path_mapping_coordination_1_0_0_0  1
    b_0_0_1_0_0  node_path_mapping_coordination_2_0_0_1  1
    b_0_0_1_0_0  bandwidth_overprovisioning_3_0_0  -1
    b_0_0_1_0_0  bandwidth_max_limit_1_0  1
    b_0_0_1_0_0  minimum_profit  0.9999
    b_0_0_2_0_0  OBJ       0.9999
    b_0_0_2_0_0  link_path_mapping_coordination_1_0_0_2_0  1
    b_0_0_2_0_0  link_path_mapping_coordination_2_0_0_2_0  1
    b_0_0_2_0_0  node_path_mapping_coordination_1_0_0_1  1
    b_0_0_2_0_0  node_path_mapping_coordination_2_0_0_0  1
    b_0_0_2_0_0  bandwidth_overprovisioning_3_0_0  -1
    b_0_0_2_0_0  bandwidth_max_limit_2_0  1
    b_0_0_2_0_0  minimum_profit  0.9999
    b_0_0_3_0_0  OBJ       0.9999
    b_0_0_3_0_0  link_path_mapping_coordination_1_0_0_3_0  1
    b_0_0_3_0_0  link_path_mapping_coordination_2_0_0_3_0  1
    b_0_0_3_0_0  node_path_mapping_coordination_1_0_0_1  1
    b_0_0_3_0_0  node_path_mapping_coordination_2_0_0_1  1
    b_0_0_3_0_0  bandwidth_overprovisioning_3_0_0  -1
    b_0_0_3_0_0  bandwidth_max_limit_3_0  1
    b_0_0_3_0_0  minimum_profit  0.9999
    b_0_0_4_0_0  OBJ       0.9999
    b_0_0_4_0_0  link_path_mapping_coordination_1_0_0_4_0  1
    b_0_0_4_0_0  link_path_mapping_coordination_2_0_0_4_0  1
    b_0_0_4_0_0  node_path_mapping_coordination_1_0_0_2  1
    b_0_0_4_0_0  node_path_mapping_coordination_2_0_0_0  1
    b_0_0_4_0_0  bandwidth_overprovisioning_3_0_0  -1
    b_0_0_4_0_0  bandwidth_max_limit_4_0  1
    b_0_0_4_0_0  minimum_profit  0.9999
    b_0_0_5_0_0  OBJ       0.9999
    b_0_0_5_0_0  link_path_mapping_coordination_1_0_0_5_0  1
    b_0_0_5_0_0  link_path_mapping_coordination_2_0_0_5_0  1
    b_0_0_5_0_0  node_path_mapping_coordination_1_0_0_2  1
    b_0_0_5_0_0  node_path_mapping_coordination_2_0_0_1  1
    b_0_0_5_0_0  bandwidth_overprovisioning_3_0_0  -1
    b_0_0_5_0_0  bandwidth_max_limit_5_0  1
    b_0_0_5_0_0  minimum_profit  0.9999
    b_0_0_6_0_0  OBJ       -0.0001
    b_0_0_6_0_0  link_path_mapping_coordination_1_0_0_6_0  1
    b_0_0_6_0_0  link_path_mapping_coordination_2_0_0_6_0  1
    b_0_0_6_0_0  node_path_mapping_coordination_1_0_0_0  1
    b_0_0_6_0_0  bandwidth_max_limit_6_0  1
    b_0_0_6_0_0  minimum_profit  -0.0001
    b_0_0_7_0_0  OBJ       -0.0001
    b_0_0_7_0_0  link_path_mapping_coordination_1_0_0_7_0  1
    b_0_0_7_0_0  link_path_mapping_coordination_2_0_0_7_0  1
    b_0_0_7_0_0  node_path_mapping_coordination_1_0_0_1  1
    b_0_0_7_0_0  bandwidth_max_limit_7_0  1
    b_0_0_7_0_0  minimum_profit  -0.0001
RHS
    RHS1      OBJ       19642.75
    RHS1      mips_limit_1_0_0_2  0.01
    RHS1      mips_limit_2_0_0_2  1
    RHS1      mips_max_limit_1_0  95.0545
    RHS1      mips_max_limit_1_1  95.0545
    RHS1      mips_max_limit_1_2  9.7304500000000007e+02
    RHS1      mips_max_limit_2_0  59
    RHS1      mips_max_limit_2_1  59
    RHS1      mips_max_limit_2_2  594
    RHS1      radio_max_limit_0_0  497547
    RHS1      radio_max_limit_1_0  500040
    RHS1      link_path_mapping_coordination_1_0_0_4_0  0.01
    RHS1      link_path_mapping_coordination_2_0_0_4_0  12500
    RHS1      node_path_mapping_coordination_1_0_0_2  12500
    RHS1      node_path_mapping_coordination_2_0_0_0  12500
    RHS1      bandwidth_overprovisioning_3_0_0  -12500
    RHS1      bandwidth_max_limit_0_0  4800000
    RHS1      bandwidth_max_limit_1_0  4800000
    RHS1      bandwidth_max_limit_2_0  4800000
    RHS1      bandwidth_max_limit_3_0  4800000
    RHS1      bandwidth_max_limit_4_0  4787500
    RHS1      bandwidth_max_limit_5_0  4800000
    RHS1      bandwidth_max_limit_6_0  4800000
    RHS1      bandwidth_max_limit_7_0  4800000
    RHS1      minimum_profit  19592.75
BOUNDS
ENDATA
